SIZE = 21,
355,350,375,165,350,430,515,415,585,250,715,175,435,635,205,78,91,495,285,190,
625,315,150,390,90,190,170,350,545,475,240,485,510,155,96,605,240,29,225,
240,185,370,68,585,380,590,360,125,155,370,370,515,700,365,280,320,420,
140,235,220,495,160,525,265,750,600,445,87,240,170,405,485,125,170,
310,505,350,340,380,370,480,240,280,305,380,280,280,105,345,495,
575,750,440,460,520,200,380,350,425,100,605,120,295,490,690,
235,435,48,610,235,440,650,300,220,320,67,91,27,430,
480,775,655,480,555,755,585,255,625,285,645,615,345,
245,81,265,575,440,295,480,465,345,600,455,625,
610,310,200,265,390,255,480,385,155,540,180,
420,705,235,480,205,605,865,590,835,660,
125,255,650,140,230,205,475,165,270,
320,535,150,63,160,430,640,440,
385,590,150,400,175,680,450,
220,320,415,120,36,545,
390,395,425,170,290,
570,110,130,310,
475,97,215,
500,380,
77,
NOTE = 